asp/input/in_30_15_7_3.lp
#const n = 30.
#const k = 15.
#const h = 7.
tile(1,12,4).
tile(2,3,1).
tile(3,8,10).
tile(4,10,12).
tile(5,7,12).
tile(6,7,5).
tile(7,1,1).
tile(8,5,15).
tile(9,6,4).
tile(10,6,6).
tile(11,8,4).
tile(12,6,12).
tile(13,9,11).
tile(14,9,5).
tile(15,9,10).
tile(16,6,12).
tile(17,15,9).
tile(18,2,14).
tile(19,15,15).
tile(20,6,1).
tile(21,5,7).
tile(22,3,5).
tile(23,5,13).
tile(24,6,10).
tile(25,12,15).
tile(26,4,4).
tile(27,10,12).
tile(28,1,8).
tile(29,7,12).
tile(30,13,7).
