instances/in_30_15_7_3.dzn
n = 30;
k = 15;
h = 7;
tiles = array2d(1..n, 1..2,
[ 12,4
, 3,1
, 8,10
, 10,12
, 7,12
, 7,5
, 1,1
, 5,15
, 6,4
, 6,6
, 8,4
, 6,12
, 9,11
, 9,5
, 9,10
, 6,12
, 15,9
, 2,14
, 15,15
, 6,1
, 5,7
, 3,5
, 5,13
, 6,10
, 12,15
, 4,4
, 10,12
, 1,8
, 7,12
, 13,7
]);